
Gurobi 12.0.0 (linux64, gurobi_cl) logging started Sun Nov 24 15:29:27 2024

Set parameter WLSAccessID
Set parameter WLSSecret
Set parameter LicenseID to value 2589270
Set parameter LogFile to value "gurobi.log"
Using license file /opt/gurobi1200/gurobi.lic
Academic license 2589270 - for non-commercial use only - registered to c2___@ucsd.edu
